
Value of objective function: 209.00000000

Actual values of the variables:
t1                              0
t2                              1
t3                              0
t4                              1
t5                              1
t6                              1
t7                              1
t8                              0
t9                              1
t10                             1
t11                             1
t12                             1
t13                             1
t14                             1
t15                             1
t16                             1
t17                             0
t18                             0
t19                             1
t20                             1
t21                             1
t22                             1
t23                             1
t24                             1
t25                             1
t26                             1
t27                             0
t28                             0
t29                             1
t30                             0
t31                             0
t32                             1
t33                             1
t34                             1
t35                             0
t36                             0
t37                             1
t38                             1
t39                             1
t40                             1
t41                             1
t42                             1
t43                             0
t44                             1
t45                             0
t46                             1
t47                             0
t48                             1
t49                             1
t50                             0
t51                             1
t52                             0
t53                             1
t54                             1
t55                             0
t56                             1
t57                             1
t58                             1
t59                             1
t60                             1
t61                             1
t62                             1
t63                             1
t64                             1
t65                             0
t66                             1
t67                             1
t68                             1
t69                             1
t70                             0
t71                             1
t72                             1
t73                             1
t74                             1
t75                             1
t76                             1
t77                             1
t78                             1
t79                             1
t80                             1
t81                             0
t82                             1
t83                             0
t84                             1
t85                             0
t86                             0
t87                             1
t88                             1
t89                             0
t90                             1
t91                             1
t92                             1
t93                             0
t94                             1
t95                             0
t96                             1
t97                             1
t98                             0
t99                             0
t100                            1
t101                            0
t102                            0
t103                            0
t104                            1
t105                            0
t106                            0
t107                            0
t108                            0
t109                            0
t110                            0
t111                            0
t112                            1
t113                            0
t114                            0
t115                            1
t116                            1
t117                            1
t118                            0
t119                            0
t120                            1
t121                            1
t122                            1
t123                            0
t124                            0
t125                            1
t126                            1
t127                            0
t128                            1
t129                            1
t130                            1
t131                            0
t132                            1
t133                            1
t134                            0
t135                            1
t136                            0
t137                            1
t138                            0
t139                            1
t140                            1
t141                            0
t142                            1
t143                            1
t144                            1
t145                            1
t146                            0
t147                            1
t148                            0
t149                            0
t150                            1
t151                            1
t152                            0
t153                            1
t154                            0
t155                            1
t156                            1
t157                            0
t158                            1
t159                            1
t160                            1
t161                            0
t162                            1
t163                            1
t164                            0
t165                            1
t166                            1
t167                            0
t168                            0
t169                            1
t170                            0
t171                            1
t172                            0
t173                            1
t174                            0
t175                            1
t176                            1
t177                            0
t178                            1
t179                            0
t180                            0
t181                            0
t182                            1
t183                            0
t184                            0
t185                            1
t186                            0
t187                            1
t188                            1
t189                            1
t190                            0
t191                            1
t192                            0
t193                            0
t194                            1
t195                            0
t196                            1
t197                            1
t198                            0
t199                            1
t200                            1
t201                            1
t202                            0
t203                            0
t204                            0
t205                            1
t206                            1
t207                            0
t208                            1
t209                            0
t210                            0
t211                            1
t212                            1
t213                            0
t214                            0
t215                            0
t216                            1
t217                            1
t218                            1
t219                            1
t220                            1
t221                            0
t222                            0
t223                            0
t224                            0
t225                            0
t226                            1
t227                            1
t228                            0
t229                            0
t230                            1
t231                            1
t232                            1
t233                            0
t234                            0
t235                            1
t236                            1
t237                            1
t238                            0
t239                            0
t240                            0
t241                            0
t242                            1
t243                            0
t244                            0
t245                            1
t246                            0
t247                            1
t248                            0
t249                            0
t250                            1
t251                            0
t252                            1
t253                            0
t254                            0
t255                            0
t256                            1
t257                            0
t258                            1
t259                            0
t260                            1
t261                            0
t262                            0
t263                            1
t264                            0
t265                            0
t266                            1
t267                            1
t268                            0
t269                            0
t270                            1
t271                            0
t272                            1
t273                            0
t274                            0
t275                            1
t276                            1
t277                            0
t278                            0
t279                            1
t280                            1
t281                            0
t282                            0
t283                            0
t284                            0
t285                            0
t286                            0
t287                            0
t288                            0
t289                            1
t290                            1
t291                            1
t292                            1
t293                            1
t294                            0
t295                            1
t296                            0
t297                            1
t298                            0
t299                            0
t300                            1
t301                            1
t302                            1
t303                            1
t304                            0
t305                            1
t306                            0
t307                            0
t308                            0
t309                            0
t310                            0
t311                            0
t312                            0
t313                            1
t314                            0
t315                            0
t316                            0
t317                            0
t318                            1
t319                            0
t320                            0
t321                            0
t322                            1
t323                            0
t324                            0
t325                            0
t326                            0
t327                            1
t328                            1
t329                            0
t330                            0
t331                            0
t332                            0
t333                            0
t334                            0
t335                            0
t336                            0
t337                            1
t338                            1
t339                            1
t340                            1
t341                            0
t342                            0
t343                            0
t344                            0
t345                            1
t346                            1
t347                            1
t348                            0
t349                            0
t350                            0
t351                            1
t352                            0
t353                            0
t354                            1
t355                            1
t356                            1
t357                            0
t358                            1
t359                            0
t360                            1
t361                            0
t362                            1
t363                            0
t364                            0
t365                            1
t366                            1
t367                            1
t368                            0
t369                            1
t370                            1
t371                            1
t372                            1
t373                            0
t374                            1
t375                            1
t376                            0
t377                            0
t378                            0
t379                            1
t380                            0
t381                            1
t382                            1
t383                            1
t384                            1
t385                            1
t386                            0
t387                            0
t388                            0
t389                            1
t390                            1
t391                            0
t392                            0
t393                            0
